&inputpp 
   outdir = './tempdir/'
   prefix = 'GaAs'
   seedname = 'GaAs'
   write_mmn = .true.
   write_amn = .true.
   write_spn = .true.
   write_sIu = .true.
   write_sHu = .true.
/
