num_wann  = 15
num_bands = 15
exclude_bands = 1-5, 21-36
higher_order_n = 2
use_ss_functional = .true.
guiding_centres = .true.

conv_window = 5
conv_tol = 1.0d-10

dis_num_iter = 3000
dis_mix_ratio = 0.5
dis_win_max = 20.0
dis_froz_max = 15.0
dis_conv_tol = 1.d-10

begin atoms_frac
K   0.5    0.5    0.5230
Nb  0.0    0.0    0.0000
O   0.0    0.5    0.0420
O   0.0    0.0    0.5400
O   0.5    0.0    0.0420
end atoms_frac

begin projections
 K:p
 O:s,p
end projections

begin unit_cell_cart
Bohr
7.5557656 0.0000000 0.0000000
0.0000000 7.5557656 0.0000000
0.0000000 0.0000000 7.6805293
!5.5557656 0.0000000 0.0000000
!0.0000000 5.5557656 0.0000000
!0.0000000 0.0000000 5.6475045
end unit_cell_cart

!write_hr = .false.
!use_ws_distance = .true.
!guiding_centres = .true.
!transl_inv = .true.

mp_grid =      3      3      3
begin kpoints
  0.000000000000  0.000000000000  0.000000000000
  0.000000000000  0.000000000000  0.333333333333
  0.000000000000  0.000000000000  0.666666666667
  0.000000000000  0.333333333333  0.000000000000
  0.000000000000  0.333333333333  0.333333333333
  0.000000000000  0.333333333333  0.666666666667
  0.000000000000  0.666666666667  0.000000000000
  0.000000000000  0.666666666667  0.333333333333
  0.000000000000  0.666666666667  0.666666666667
  0.333333333333  0.000000000000  0.000000000000
  0.333333333333  0.000000000000  0.333333333333
  0.333333333333  0.000000000000  0.666666666667
  0.333333333333  0.333333333333  0.000000000000
  0.333333333333  0.333333333333  0.333333333333
  0.333333333333  0.333333333333  0.666666666667
  0.333333333333  0.666666666667  0.000000000000
  0.333333333333  0.666666666667  0.333333333333
  0.333333333333  0.666666666667  0.666666666667
  0.666666666667  0.000000000000  0.000000000000
  0.666666666667  0.000000000000  0.333333333333
  0.666666666667  0.000000000000  0.666666666667
  0.666666666667  0.333333333333  0.000000000000
  0.666666666667  0.333333333333  0.333333333333
  0.666666666667  0.333333333333  0.666666666667
  0.666666666667  0.666666666667  0.000000000000
  0.666666666667  0.666666666667  0.333333333333
  0.666666666667  0.666666666667  0.666666666667
end kpoints
