restart = plot
bands_plot = true
bands_num_points = 10

num_bands         =   12       
num_wann          =   8
use_ws_distance = .false.
search_shells=12

dis_win_max       = 17.0d0
dis_froz_max      =  6.4d0
dis_num_iter      =  120
dis_mix_ratio     = 1.d0

num_iter          = 50
num_print_cycles  = 10

Begin Atoms_Frac
Si  -0.25   0.75  -0.25
Si   0.00   0.00   0.00 
End Atoms_Frac
    
Begin Projections     
Si : sp3 
End Projections       

begin explicit_kpath
    0.500000    0.500000    0.500000
    0.450000    0.450000    0.450000
    0.400000    0.400000    0.400000
    0.350000    0.350000    0.350000
    0.300000    0.300000    0.300000
    0.250000    0.250000    0.250000
    0.200000    0.200000    0.200000
    0.150000    0.150000    0.150000
    0.100000    0.100000    0.100000
    0.050000    0.050000    0.050000
    0.000000    0.000000    0.000000
    0.041667    0.000000    0.041667
    0.083333    0.000000    0.083333
    0.125000    0.000000    0.125000
    0.166667    0.000000    0.166667
    0.208333    0.000000    0.208333
    0.250000    0.000000    0.250000
    0.291667    0.000000    0.291667
    0.333333    0.000000    0.333333
    0.375000    0.000000    0.375000
    0.416667    0.000000    0.416667
    0.458333    0.000000    0.458333
    0.500000    0.000000    0.500000
    0.500000   -0.500000    0.000000
    0.468750   -0.468750    0.000000
    0.437500   -0.437500    0.000000
    0.406250   -0.406250    0.000000
    0.375000   -0.375000    0.000000
    0.343750   -0.343750    0.000000
    0.312500   -0.312500    0.000000
    0.281250   -0.281250    0.000000
    0.250000   -0.250000    0.000000
    0.218750   -0.218750    0.000000
    0.187500   -0.187500    0.000000
    0.156250   -0.156250    0.000000
    0.125000   -0.125000    0.000000
    0.093750   -0.093750    0.000000
    0.062500   -0.062500    0.000000
    0.031250   -0.031250    0.000000
    0.000000    0.000000    0.000000
    0.500000    0.000000    0.500000
    0.500000    0.050000    0.500000
    0.500000    0.100000    0.500000
    0.500000    0.150000    0.500000
    0.500000    0.200000    0.500000
    0.500000    0.250000    0.500000
    0.500000    0.300000    0.500000
    0.500000    0.350000    0.500000
    0.500000    0.400000    0.500000
    0.500000    0.450000    0.500000
    0.500000    0.500000    0.500000
end explicit_kpath
    
begin explicit_kpath_labels
L 0.50000  0.50000 0.5000
G 0.00000  0.00000 0.0000
X 0.50000  0.00000 0.5000
X 0.50000 -0.50000 0.0000
K 0.37500 -0.37500 0.0000
G 0.00000  0.00000 0.0000
X 0.50000  0.00000 0.5000 
L 0.50000  0.50000 0.5000
end explicit_kpath_labels


Begin Unit_Cell_Cart
-2.6988 0.0000 2.6988
 0.0000 2.6988 2.6988
-2.6988 2.6988 0.0000
End Unit_Cell_Cart


mp_grid      = 4 4 4


begin kpoints
0.0000  0.0000   0.0000   
0.0000  0.2500   0.0000   
0.0000  0.5000   0.0000   
0.0000  0.7500   0.0000   
0.2500  0.0000   0.0000   
0.2500  0.2500   0.0000   
0.2500  0.5000   0.0000   
0.2500  0.7500   0.0000   
0.5000  0.0000   0.0000   
0.5000  0.2500   0.0000   
0.5000  0.5000   0.0000   
0.5000  0.7500   0.0000   
0.7500  0.0000   0.0000   
0.7500  0.2500   0.0000   
0.7500  0.5000   0.0000   
0.7500  0.7500   0.0000   
0.0000  0.0000   0.2500   
0.0000  0.2500   0.2500   
0.0000  0.5000   0.2500   
0.0000  0.7500   0.2500   
0.2500  0.0000   0.2500   
0.2500  0.2500   0.2500   
0.2500  0.5000   0.2500   
0.2500  0.7500   0.2500   
0.5000  0.0000   0.2500   
0.5000  0.2500   0.2500   
0.5000  0.5000   0.2500   
0.5000  0.7500   0.2500   
0.7500  0.0000   0.2500   
0.7500  0.2500   0.2500   
0.7500  0.5000   0.2500   
0.7500  0.7500   0.2500   
0.0000  0.0000   0.5000   
0.0000  0.2500   0.5000   
0.0000  0.5000   0.5000   
0.0000  0.7500   0.5000   
0.2500  0.0000   0.5000   
0.2500  0.2500   0.5000   
0.2500  0.5000   0.5000   
0.2500  0.7500   0.5000   
0.5000  0.0000   0.5000   
0.5000  0.2500   0.5000   
0.5000  0.5000   0.5000   
0.5000  0.7500   0.5000   
0.7500  0.0000   0.5000   
0.7500  0.2500   0.5000   
0.7500  0.5000   0.5000   
0.7500  0.7500   0.5000   
0.0000  0.0000   0.7500   
0.0000  0.2500   0.7500   
0.0000  0.5000   0.7500   
0.0000  0.7500   0.7500   
0.2500  0.0000   0.7500   
0.2500  0.2500   0.7500   
0.2500  0.5000   0.7500   
0.2500  0.7500   0.7500   
0.5000  0.0000   0.7500   
0.5000  0.2500   0.7500   
0.5000  0.5000   0.7500   
0.5000  0.7500   0.7500   
0.7500  0.0000   0.7500   
0.7500  0.2500   0.7500   
0.7500  0.5000   0.7500   
0.7500  0.7500   0.7500   
End Kpoints


