num_bands         =   24
num_wann          =   18
higher_order_n    =   2

begin unit_cell_cart
bohr
-3.6963  0.000  3.6963
0.000  3.6963  3.6963
-3.6963  3.6963  0.000
end unit_cell_cart

begin atoms_frac
Pt  0.000  0.000  0.000
end atoms_frac

spinors = true
begin projections
Pt:s;p;d
end projections

berry           = true
berry_task      = eval_shc
berry_kmesh     = 15 15 15

shc_freq_scan = false
shc_alpha = 1
shc_beta = 2
shc_gamma = 3
shc_method = qiao
fermi_energy_min = 6
fermi_energy_max = 26
fermi_energy_step = 0.1

mp_grid =      3      3      3
begin kpoints
  0.000000000000  0.000000000000  0.000000000000
  0.000000000000  0.000000000000  0.333333333333
  0.000000000000  0.000000000000  0.666666666667
  0.000000000000  0.333333333333  0.000000000000
  0.000000000000  0.333333333333  0.333333333333
  0.000000000000  0.333333333333  0.666666666667
  0.000000000000  0.666666666667  0.000000000000
  0.000000000000  0.666666666667  0.333333333333
  0.000000000000  0.666666666667  0.666666666667
  0.333333333333  0.000000000000  0.000000000000
  0.333333333333  0.000000000000  0.333333333333
  0.333333333333  0.000000000000  0.666666666667
  0.333333333333  0.333333333333  0.000000000000
  0.333333333333  0.333333333333  0.333333333333
  0.333333333333  0.333333333333  0.666666666667
  0.333333333333  0.666666666667  0.000000000000
  0.333333333333  0.666666666667  0.333333333333
  0.333333333333  0.666666666667  0.666666666667
  0.666666666667  0.000000000000  0.000000000000
  0.666666666667  0.000000000000  0.333333333333
  0.666666666667  0.000000000000  0.666666666667
  0.666666666667  0.333333333333  0.000000000000
  0.666666666667  0.333333333333  0.333333333333
  0.666666666667  0.333333333333  0.666666666667
  0.666666666667  0.666666666667  0.000000000000
  0.666666666667  0.666666666667  0.333333333333
  0.666666666667  0.666666666667  0.666666666667
end kpoints
