num_wann = 4 
num_iter = 20

write_rmn = .true.
iprint = 0

begin projections
f=0.0,0.0,0.0:s
f=0.0,0.0,0.5:s
f=0.0,0.5,0.0:s
f=0.5,0.0,0.0:s
end projections

begin atoms_frac
C -0.125 -0.125 -0.125
C  0.125  0.125  0.125
end atoms_frac

begin unit_cell_cart
-1.61399  0.0  1.61399
 0.0  1.61399  1.61399
-1.61399  1.61399  0.0
end unit_cell_cart

mp_grid = 4 4 4

begin kpoints
0.0  0.0  0.0
0.0  0.25  0.0
0.0  0.50  0.0
0.0  0.75  0.0
0.25  0.0  0.0
0.25  0.25  0.0
0.25  0.50  0.0
0.25  0.75  0.0
0.50  0.0  0.0
0.50  0.25  0.0
0.50  0.50  0.0
0.50  0.75  0.0
0.75  0.0  0.0
0.75  0.25  0.0
0.75  0.50  0.0
0.75  0.75  0.0
0.0  0.0  0.25
0.0  0.25  0.25
0.0  0.50  0.25
0.0  0.75  0.25
0.25  0.0  0.25
0.25  0.25  0.25
0.25  0.50  0.25
0.25  0.75  0.25
0.50  0.0  0.25
0.50  0.25  0.25
0.50  0.50  0.25
0.50  0.75  0.25
0.75  0.0  0.25
0.75  0.25  0.25
0.75  0.50  0.25
0.75  0.75  0.25
0.0  0.0  0.50
0.0  0.25  0.50
0.0  0.50  0.50
0.0  0.75  0.50
0.25  0.0  0.50
0.25  0.25  0.50
0.25  0.50  0.50
0.25  0.75  0.50
0.50  0.0  0.50
0.50  0.25  0.50
0.50  0.50  0.50
0.50  0.75  0.50
0.75  0.0  0.50
0.75  0.25  0.50
0.75  0.50  0.50
0.75  0.75  0.50
0.0  0.0  0.75
0.0  0.25  0.75
0.0  0.50  0.75
0.0  0.75  0.75
0.25  0.0  0.75
0.25  0.25  0.75
0.25  0.50  0.75
0.25  0.75  0.75
0.50  0.0  0.75
0.50  0.25  0.75
0.50  0.50  0.75
0.50  0.75  0.75
0.75  0.0  0.75
0.75  0.25  0.75
0.75  0.50  0.75
0.75  0.75  0.75
end kpoints
