num_wann          =   18
higher_order_n    =   3

begin unit_cell_cart
bohr
-3.6963  0.000  3.6963
0.000  3.6963  3.6963
-3.6963  3.6963  0.000
end unit_cell_cart

begin atoms_frac
Pt  0.000  0.000  0.000
end atoms_frac

mp_grid           = 3 3 3

begin kpoints
  0.00000000  0.00000000  0.00000000
  0.00000000  0.00000000  0.33333333
  0.00000000  0.00000000  0.66666667
  0.00000000  0.33333333  0.00000000
  0.00000000  0.33333333  0.33333333
  0.00000000  0.33333333  0.66666667
  0.00000000  0.66666667  0.00000000
  0.00000000  0.66666667  0.33333333
  0.00000000  0.66666667  0.66666667
  0.33333333  0.00000000  0.00000000
  0.33333333  0.00000000  0.33333333
  0.33333333  0.00000000  0.66666667
  0.33333333  0.33333333  0.00000000
  0.33333333  0.33333333  0.33333333
  0.33333333  0.33333333  0.66666667
  0.33333333  0.66666667  0.00000000
  0.33333333  0.66666667  0.33333333
  0.33333333  0.66666667  0.66666667
  0.66666667  0.00000000  0.00000000
  0.66666667  0.00000000  0.33333333
  0.66666667  0.00000000  0.66666667
  0.66666667  0.33333333  0.00000000
  0.66666667  0.33333333  0.33333333
  0.66666667  0.33333333  0.66666667
  0.66666667  0.66666667  0.00000000
  0.66666667  0.66666667  0.33333333
  0.66666667  0.66666667  0.66666667
end kpoints