dis_froz_max = 13.0
mp_grid = 4 4 4
num_bands = 12
num_iter = 2000
num_wann = 7

# postw90 options
dos_energy_max = 11.2
dos_energy_min = 10.2
dos = true
kmesh = 20 
dos_energy_step = 0.1

begin unit_cell_cart
bohr
-3.411 0.0 3.411
 0.0 3.411 3.411
-3.411 3.411 0.0
end unit_cell_cart

begin atoms_frac
Cu 0.0 0.0 0.00
end atoms_frac

begin projections
Cu:d
f=0.25,0.25,0.25:s
f=-0.25,-0.25,-0.25:s
end projections

begin kpoints
0.0 0.0 0.0
0.0 0.25 0.0
0.0 0.50 0.0
0.0 0.75 0.0
0.25 0.0 0.0
0.25 0.25 0.0
0.25 0.50 0.0
0.25 0.75 0.0
0.50 0.0 0.0
0.50 0.25 0.0
0.50 0.50 0.0
0.50 0.75 0.0
0.75 0.0 0.0
0.75 0.25 0.0
0.75 0.50 0.0
0.75 0.75 0.0
0.0 0.0 0.25
0.0 0.25 0.25
0.0 0.50 0.25
0.0 0.75 0.25
0.25 0.0 0.25
0.25 0.25 0.25
0.25 0.50 0.25
0.25 0.75 0.25
0.50 0.0 0.25
0.50 0.25 0.25
0.50 0.50 0.25
0.50 0.75 0.25
0.75 0.0 0.25
0.75 0.25 0.25
0.75 0.50 0.25
0.75 0.75 0.25
0.0 0.0 0.50
0.0 0.25 0.50
0.0 0.50 0.50
0.0 0.75 0.50
0.25 0.0 0.50
0.25 0.25 0.50
0.25 0.50 0.50
0.25 0.75 0.50
0.50 0.0 0.50
0.50 0.25 0.50
0.50 0.50 0.50
0.50 0.75 0.50
0.75 0.0 0.50
0.75 0.25 0.50
0.75 0.50 0.50
0.75 0.75 0.50
0.0 0.0 0.75
0.0 0.25 0.75
0.0 0.50 0.75
0.0 0.75 0.75
0.25 0.0 0.75
0.25 0.25 0.75
0.25 0.50 0.75
0.25 0.75 0.75
0.50 0.0 0.75
0.50 0.25 0.75
0.50 0.50 0.75
0.50 0.75 0.75
0.75 0.0 0.75
0.75 0.25 0.75
0.75 0.50 0.75
0.75 0.75 0.75
end kpoints
